40 16
12 290
2 877
14 766
2 626
11 57
4 940
5 811
1 912
4 772
8 460
3 352
15 674
10 581
1 819
11 828
12 821
11 435
1 33
11 474
14 608
2 782
13 696
11 452
13 653
5 496
2 816
10 317
9 688
15 31
6 43
13 425
13 912
10 526
12 268
5 670
2 513
12 928
13 852
8 326
9 866
